#######################
Slurm job id: 17497813_135
Running on machine: p46
Running cmd: /nfs/shared/static-builds/gurobi1003 SOFTMEMLIMIT=125 MIPFocus=0 Presolve=2 TimeLimit=300 seed=4 /nfs/models/miplib2010/k16x240.mps.bz2
#######################
Set parameter TimeLimit to value 300
Set parameter SoftMemLimit to value 125
Set parameter LogFile to value 1003-MIPFocus0-Presolve2-TimeLimit300-k16x240-4.log
Set parameter Presolve to value 2
Set parameter Seed to value 4
Using license file /opt/gurobi/gurobi.lic

Gurobi Optimizer version 10.0.3 build v10.0.3rc0 (linux64)
Copyright (c) 2023, Gurobi Optimization, LLC

Read MPS format model from file /nfs/models/miplib2010/k16x240.mps.bz2
Reading time = 0.00 seconds
k16x240: 256 rows, 480 columns, 960 nonzeros

CPU model: Intel(R) Xeon(R) E-2388G CPU @ 3.20GHz, instruction set [SSE2|AVX|AVX2|AVX512]
Thread count: 8 physical cores, 16 logical processors, using up to 16 threads

Optimize a model with 256 rows, 480 columns and 960 nonzeros
Model fingerprint: 0x4e80885f
Variable types: 240 continuous, 240 integer (240 binary)
Coefficient statistics:
  Matrix range     [1e+00, 1e+03]
  Objective range  [1e+00, 1e+03]
  Bounds range     [1e+00, 1e+03]
  RHS range        [4e+00, 4e+02]
Found heuristic solution: objective 20422.000000
Presolve time: 0.00s
Presolved: 256 rows, 480 columns, 960 nonzeros
Variable types: 240 continuous, 240 integer (240 binary)
Root relaxation presolve removed 241 rows and 240 columns
Root relaxation presolved: 15 rows, 240 columns, 450 nonzeros


Root relaxation: objective 2.769838e+03, 16 iterations, 0.00 seconds (0.00 work units)

    Nodes    |    Current Node    |     Objective Bounds      |     Work
 Expl Unexpl |  Obj  Depth IntInf | Incumbent    BestBd   Gap | It/Node Time

     0     0 2769.83800    0   14 20422.0000 2769.83800  86.4%     -    0s
H    0     0                    11359.000000 2769.83800  75.6%     -    0s
H    0     0                    11322.000000 8084.69631  28.6%     -    0s
     0     0 8084.69631    0   26 11322.0000 8084.69631  28.6%     -    0s
H    0     0                    11077.000000 8084.69631  27.0%     -    0s
     0     0 8528.16906    0   24 11077.0000 8528.16906  23.0%     -    0s
H    0     0                    11036.000000 8539.15185  22.6%     -    0s
     0     0 8539.15185    0   34 11036.0000 8539.15185  22.6%     -    0s
     0     0 8548.03675    0   29 11036.0000 8548.03675  22.5%     -    0s
     0     0 8707.67202    0   35 11036.0000 8707.67202  21.1%     -    0s
H    0     0                    10923.000000 8707.67202  20.3%     -    0s
H    0     0                    10801.000000 8707.67202  19.4%     -    0s
     0     0 8756.82179    0   29 10801.0000 8756.82179  18.9%     -    0s
     0     0 8759.07726    0   27 10801.0000 8759.07726  18.9%     -    0s
     0     0 8844.99400    0   32 10801.0000 8844.99400  18.1%     -    0s
     0     0 8861.05500    0   35 10801.0000 8861.05500  18.0%     -    0s
     0     0 8862.45262    0   36 10801.0000 8862.45262  17.9%     -    0s
     0     0 9025.16206    0   34 10801.0000 9025.16206  16.4%     -    0s
     0     0 9032.67759    0   37 10801.0000 9032.67759  16.4%     -    0s
     0     0 9035.38017    0   37 10801.0000 9035.38017  16.3%     -    0s
     0     0 9069.61982    0   34 10801.0000 9069.61982  16.0%     -    0s
     0     0 9069.61982    0   34 10801.0000 9069.61982  16.0%     -    0s
     0     2 9072.45482    0   34 10801.0000 9072.45482  16.0%     -    0s
H   31    40                    10763.000000 9275.72968  13.8%  57.5    0s
H  875   754                    10759.000000 9360.89782  13.0%  14.9    0s
H 1290  1071                    10674.000000 9424.02696  11.7%  14.6    0s
 32831 12817 10266.9928   41   12 10674.0000 9998.69893  6.33%  23.7    5s
 65674 18761 10665.5991   30   11 10674.0000 10158.2333  4.83%  25.1   10s
 104474 18134 10469.0322   33   10 10674.0000 10311.5597  3.40%  26.1   15s
 139367  9141     cutoff   45      10674.0000 10466.3394  1.95%  26.2   20s

Cutting planes:
  Gomory: 1
  Lift-and-project: 18
  Cover: 83
  Implied bound: 16
  MIR: 199
  Flow cover: 305
  Flow path: 46
  Inf proof: 4
  Zero half: 7
  Network: 60
  Relax-and-lift: 1

Explored 155287 nodes (3976067 simplex iterations) in 22.31 seconds (34.80 work units)
Thread count was 16 (of 16 available processors)

Solution count 10: 10674 10759 10763 ... 20422

Optimal solution found (tolerance 1.00e-04)
Best objective 1.067400000000e+04, best bound 1.067400000000e+04, gap 0.0000%
